NAME: instance_499
TYPE: TSP
DIMENSION: 20
EDGE_WEIGHT_TYPE: EUC_2D
NODE_COORD_SECTION
0 24.37 68.05
1 15.63 83.89
2 57.48 90.42
3 68.32 65.77
4 71.87 98.64
5 80.57 18.60
6 20.02 24.24
7 17.12 25.13
8 60.34 86.74
9 57.44 1.17
10 98.10 74.41
11 95.23 20.24
12 21.10 77.97
13 36.88 59.97
14 96.71 60.66
15 78.25 0.97
16 35.08 62.34
17 18.94 67.06
18 63.17 75.47
19 82.15 41.78
EOF
